c 1 A1
c 2 A2
c 3 C3
c 4 C5
c 5 A6
c 6 C7
c 7 A4
c 8 C8
c 9 C9
c 10 C10
c 11 C11
c 12 C12
c 13 C13
c 14 C15
c 15 A14
c 16 C16
c 17 C17
c 18 C18
c 19 C19
c 20 C20
c 21 C21
p cnf 21 36
1 0
1 -2 0
2 -1 0
2 -3 0
2 -7 0
2 -4 0
2 -5 0
3 -2 0
4 -2 0
5 -6 0
7 -8 0
7 -9 0
7 -10 0
7 -11 0
7 -12 0
7 -13 0
7 -15 0
7 -14 0
9 -7 0
12 -7 0
15 -7 0
14 -7 0
15 -16 0
15 -17 0
15 -18 0
15 -19 0
15 -20 0
15 -21 0
-7 -5 10 12 -16 0
7 -5 -10 -16 0
7 -5 -12 -16 0
7 5 10 12 0
-7 5 -10 0
-7 5 -12 0
5 16 0
14 18 18 -18 -9 0

